single conv molecule
cell
  5.80000   5.80000   5.80000  90.00000  90.00000  90.00000
frac
C1        0.9105300      0.0015200      0.9771000       0.7710000
N1        0.1524100      0.0006300      0.0558300      -1.1000000
H1        0.9073500      0.0015000      0.7877200       0.0230000
H1        0.8251500      0.1573900      0.0429400       0.0230000
H1        0.8240100      0.8463000      0.0428500       0.0230000
H2        0.2416000      0.1462300      0.9982100       0.5400000
H2        0.2409500      0.8549300      0.9976500       0.5400000
H2        0.1686900      0.0002300      0.2348900       0.5400000
Pb        0.5077500      0.4962300      0.4919400       2.0300000
Br        0.4511600      0.5000700     -0.0116100      -1.1300000
Br        0.4541200     -0.0042400      0.5386500      -1.1300000
Br       -0.0005200      0.4985600      0.4409600      -1.1300000
supercell 2 2 2
species     6
C1  
N1  
H1  
H2  
Pb  
Br  
library peros
output cif  test
