fit conv molecule
cell
  6.31000   6.31000   6.31000  90.00000  90.00000  90.00000
fractional
C1        0.9262200      0.0000300      0.9863200       0.7710000
N1        0.1530700      0.9998900      0.0462400      -1.1000000
H1        0.9134200      0.9999300      0.8125300       0.0230000
H1        0.8509900      0.1430500      0.0516100       0.0230000
H1        0.8507800      0.8572000      0.0517800       0.0230000
H2        0.2320800      0.1337500      0.9889300       0.5400000
H2        0.2319100      0.8658900      0.9890500       0.5400000
H2        0.1768100      0.9999500      0.2102500       0.5400000
Pb        0.4878900      0.4999200      0.4912700       2.0300000
I         0.4388000      0.4999400      0.9880600      -1.1300000
I         0.4471400      0.9998800      0.5264100      -1.1300000
I         0.9741300      0.4999100      0.4546900      -1.1300000
observable
 energy eV
   0.00000000       100.000000    
 end
cell
  6.30000   6.30000   6.30000  90.00000  90.00000  90.00000
fractional
C1        0.9260800      0.0000300      0.9862100       0.7710000
N1        0.1531600      0.9999000      0.0462100      -1.1000000
H1        0.9131300      0.9999300      0.8121900       0.0230000
H1        0.8507100      0.1432700      0.0516100       0.0230000
H1        0.8505100      0.8570000      0.0517800       0.0230000
H2        0.2323800      0.1338900      0.9888700       0.5400000
H2        0.2322200      0.8657500      0.9889800       0.5400000
H2        0.1772000      0.9999500      0.2104000       0.5400000
Pb        0.4878500      0.4999000      0.4914800       2.0300000
I         0.4387300      0.4999500      0.9881100      -1.1300000
I         0.4469600      0.9999000      0.5265800      -1.1300000
I         0.9742800      0.4998900      0.4547100      -1.1300000
observable
 energy eV
   3.05175781E-04   100.000000    
 end
cell
  6.32000   6.32000   6.32000  90.00000  90.00000  90.00000
fractional
C1        0.9263600      0.0000400      0.9863500       0.7710000
N1        0.1529300      0.9998900      0.0461900      -1.1000000
H1        0.9133900      0.9999300      0.8128500       0.0230000
H1        0.8511100      0.1427700      0.0514600       0.0230000
H1        0.8509000      0.8574800      0.0516300       0.0230000
H2        0.2319600      0.1334700      0.9890500       0.5400000
H2        0.2317900      0.8661800      0.9891600       0.5400000
H2        0.1768600      0.9999500      0.2098800       0.5400000
Pb        0.4879100      0.4999000      0.4913600       2.0300000
I         0.4387600      0.4999500      0.9880600      -1.1300000
I         0.4470800      0.9998900      0.5264400      -1.1300000
I         0.9741700      0.4999000      0.4547000      -1.1300000
observable
 energy eV
   4.84466553E-04   100.000000    
 end
cell
  6.31000   6.31000   6.31000  90.00000  90.00000  90.00000
fractional
C1        0.9262200      0.9967800      0.9864600       0.7710000
N1        1.1530600      1.0030000      1.0461200      -1.1000000
H1        0.9134600      0.9832200      0.8131800       0.0230000
H1        0.8498600      1.1437800      1.0405999       0.0230000
H1        0.8519000      0.8588000      1.0627199       0.0230000
H2        1.2310400      1.1326801      0.9786800       0.5400000
H2        1.2329400      0.8656200      0.9993400       0.5400000
H2        1.1767600      1.0158200      1.2096200       0.5400000
Pb        0.4878800      0.4999200      1.4912601       2.0300000
I         0.4388000      0.4999400      0.9880600      -1.1300000
I         0.4471400      0.9998800      1.5264200      -1.1300000
I         0.9741400      0.4999000      1.4547000      -1.1300000
observable
 energy eV
   1.93405151E-03   100.000000    
 end
cell
  6.28000   6.28000   6.28000  90.00000  90.00000  90.00000
fractional
C1        0.9256900      0.0000300      0.9861200       0.7710000
N1        0.1534700      0.9999100      0.0463000      -1.1000000
H1        0.9130500      0.9999300      0.8115100       0.0230000
H1        0.8503300      0.1438300      0.0518600       0.0230000
H1        0.8501200      0.8564400      0.0520300       0.0230000
H2        0.2327200      0.1344700      0.9886300       0.5400000
H2        0.2325600      0.8651700      0.9887500       0.5400000
H2        0.1772200      0.9999500      0.2111100       0.5400000
Pb        0.4877600      0.4998700      0.4914100       2.0300000
I         0.4388500      0.4999400      0.9881200      -1.1300000
I         0.4471100      0.9999000      0.5266400      -1.1300000
I         0.9743400      0.4998900      0.4546600      -1.1300000
observable
 energy eV
   2.79617310E-03   100.000000    
 end
cell
  6.35000   6.35000   6.35000  90.00000  90.00000  90.00000
fractional
C1        0.9271900      0.0000200      0.9865600       0.7710000
N1        0.1527000      0.9999000      0.0461800      -1.1000000
H1        0.9143900      0.9999300      0.8139000       0.0230000
H1        0.8523100      0.1420800      0.0514200       0.0230000
H1        0.8521000      0.8581600      0.0515900       0.0230000
H2        0.2309800      0.1329300      0.9891100       0.5400000
H2        0.2308200      0.8667000      0.9892200       0.5400000
H2        0.1760100      0.9999500      0.2091800       0.5400000
Pb        0.4879500      0.4999600      0.4913700       2.0300000
I         0.4385500      0.4999400      0.9879300      -1.1300000
I         0.4468200      0.9999100      0.5259000      -1.1300000
I         0.9733900      0.4998600      0.4547900      -1.1300000
observable
 energy eV
   5.33294678E-03   100.000000    
 end
cell
  6.25000   6.25000   6.25000  90.00000  90.00000  90.00000
fractional
C1        0.9239500      0.0000900      0.9853400       0.7710000
N1        0.1525200      0.9999800      0.0468500      -1.1000000
H1        0.9115800      0.0000200      0.8098600       0.0230000
H1        0.8477300      0.1445300      0.0509000       0.0230000
H1        0.8475000      0.8558900      0.0510600       0.0230000
H2        0.2327200      0.1349900      0.9893000       0.5400000
H2        0.2325500      0.8648100      0.9893900       0.5400000
H2        0.1756200      0.0000100      0.2124300       0.5400000
Pb        0.4862900      0.4993500      0.4906300       2.0300000
I         0.4445300      0.4999300      0.9880900      -1.1300000
I         0.4515300      0.9996700      0.5302300      -1.1300000
I         0.9767100      0.5000700      0.4530600      -1.1300000
observable
 energy eV
   1.00517273E-02   100.000000    
 end
cell
  6.40000   6.40000   6.40000  90.00000  90.00000  90.00000
fractional
C1        0.9317900      0.9999100      0.9881000       0.7710000
N1        0.1565100      0.9996600      0.0437900      -1.1000000
H1        0.9165800      0.9997900      0.8170300       0.0230000
H1        0.8589300      0.1409000      0.0539600       0.0230000
H1        0.8585600      0.8592500      0.0542100       0.0230000
H2        0.2336300      0.1317100      0.9864600       0.5400000
H2        0.2333300      0.8674000      0.9864900       0.5400000
H2        0.1822300      0.9996300      0.2054200       0.5400000
Pb        0.4813700      0.5000500      0.4931900       2.0300000
I         0.4323900      0.4997600      0.9884200      -1.1300000
I         0.4379100      0.0001000      0.5204600      -1.1300000
I         0.9600000      0.5012200      0.4596000      -1.1300000
observable
 energy eV
   1.96685791E-02   100.000000    
 end
cell
  6.20000   6.20000   6.20000  90.00000  90.00000  90.00000
fractional
C1        0.9194500      0.0000100      0.9807300       0.7710000
N1        0.1479900     -0.0000800      0.0491600      -1.1000000
H1        0.9122600      0.9998900      0.8036200       0.0230000
H1        0.8406800      0.1456700      0.0443800       0.0230000
H1        0.8404800      0.8545700      0.0446100       0.0230000
H2        0.2302800      0.1361700      0.9933400       0.5400000
H2        0.2301700      0.8635600      0.9934300       0.5400000
H2        0.1666400     -0.0000300      0.2165300       0.5400000
Pb        0.5000600      0.4998100      0.4949200       2.0300000
I         0.4506500      0.4998800      0.9920800      -1.1300000
I         0.4555900      0.9997200      0.5308300      -1.1300000
I         0.9889800      0.5001700      0.4535200      -1.1300000
observable
 energy eV
   3.55072021E-02   100.000000    
 end
cell
  6.31000   6.31000   6.31000  90.00000  90.00000  90.00000
fractional
C1        0.9467800      0.9956000      0.9445400       0.7710000
N1        1.1334600      1.0041400      1.0864201      -1.1000000
H1        1.0014200      0.9823800      0.7795800       0.0230000
H1        0.8538800      1.1416000      0.9651200       0.0230000
H1        0.8504800      0.8566000      0.9867800       0.0230000
H2        1.2298400      1.1348600      1.0537200       0.5400000
H2        1.2266999      0.8677800      1.0739800       0.5400000
H2        1.0926800      1.0167600      1.2465400       0.5400000
Pb        0.4878800      0.4999200      1.4912601       2.0300000
I         0.4388000      0.4999400      0.9880600      -1.1300000
I         0.4471400      0.9998800      1.5264200      -1.1300000
I         0.9741400      0.4999000      1.4547000      -1.1300000
observable
 energy eV
   4.00505066E-02   100.000000    
 end
cell
  6.31000   6.31000   6.31000  90.00000  90.00000  90.00000
fractional
C1        0.9232600      0.9996000      1.0329400       0.7710000
N1        1.1557600      1.0003200      1.0014800      -1.1000000
H1        0.8449200      0.9994800      0.8772600       0.0230000
H1        0.8782200      1.1423000      1.1222600       0.0230000
H1        0.8791000      0.8564600      1.1220400       0.0230000
H2        1.2063800      1.1344800      0.9185200       0.5400000
H2        1.2071600      0.8666400      0.9182400       0.5400000
H2        1.2404400      1.0004200      1.1439199       0.5400000
Pb        0.4878800      0.4999200      1.4912601       2.0300000
I         0.4388000      0.4999400      0.9880600      -1.1300000
I         0.4471400      0.9998800      1.5264200      -1.1300000
I         0.9741400      0.4999000      1.4547000      -1.1300000
observable
 energy eV
   7.07511902E-02   100.000000    
 end
cell
  6.50000   6.50000   6.50000  90.00000  90.00000  90.00000
fractional
C1        0.9379900     -0.0000100      0.9904800       0.7710000
N1        0.1601400     -0.0001100      0.0421500      -1.1000000
H1        0.9212800      0.9998500      0.8220500       0.0230000
H1        0.8669200      0.1388400      0.0561700       0.0230000
H1        0.8667700      0.8613800      0.0563900       0.0230000
H2        0.2350900      0.1298100      0.9845700       0.5400000
H2        0.2349300      0.8698300      0.9847200       0.5400000
H2        0.1878500     -0.0000200      0.2008800       0.5400000
Pb        0.4766400      0.5000300      0.4950100       2.0300000
I         0.4247000      0.4998000     -0.0138200      -1.1300000
I         0.4266700     -0.0000800      0.5181000      -1.1300000
I        -0.0557700      0.5000300      0.4604300      -1.1300000
observable
 energy eV
   8.03604126E-02   100.000000    
 end
cell
  6.10000   6.10000   6.10000  90.00000  90.00000  90.00000
fractional
C1        0.9168300     -0.0000400      0.9730500       0.7710000
N1        0.1436600      0.9999300      0.0582400      -1.1000000
H1        0.9223600      0.9998800      0.7928200       0.0230000
H1        0.8321100      0.1480600      0.0317300       0.0230000
H1        0.8319700      0.8520100      0.0318600       0.0230000
H2        0.2308900      0.1383100      0.0065000       0.5400000
H2        0.2308600      0.8614900      0.0066600       0.5400000
H2        0.1516600      0.0000400      0.2289200       0.5400000
Pb        0.5089700      0.4998400      0.4924600       2.0300000
I         0.4548000      0.4999300      0.9904700      -1.1300000
I         0.4605200     -0.0001600      0.5397200      -1.1300000
I         0.9986000      0.5000500      0.4447100      -1.1300000
observable
 energy eV
  0.134426117       100.000000    
 end
cell
  6.31000   6.31000   6.31000  90.00000  90.00000  90.00000
fractional
C1        0.9818200      0.9947600      0.9136800       0.7710000
N1        1.0999200      1.0049599      1.1161600      -1.1000000
H1        1.0955600      0.9826000      0.7822000       0.0230000
H1        0.8865000      1.1396800      0.8969000       0.0230000
H1        0.8782400      0.8546000      0.9161000       0.0230000
H2        1.2000200      1.1368001      1.1226200       0.5400000
H2        1.1923400      0.8696600      1.1405600       0.5400000
H2        1.0008399      1.0166800      1.2484800       0.5400000
Pb        0.4878800      0.4999200      1.4912601       2.0300000
I         0.4388000      0.4999400      0.9880600      -1.1300000
I         0.4471400      0.9998800      1.5264200      -1.1300000
I         0.9741400      0.4999000      1.4547000      -1.1300000
observable
 energy eV
  0.142871857       100.000000    
 end
cell
  6.60000   6.60000   6.60000  90.00000  90.00000  90.00000
fractional
C1        0.9486200     -0.0003900      0.9968600       0.7710000
N1        0.1690800     -0.0002700      0.0400700      -1.1000000
H1        0.9263100      0.9993600      0.8317800       0.0230000
H1        0.8811500      0.1362700      0.0639200       0.0230000
H1        0.8812700      0.8630000      0.0642900       0.0230000
H2        0.2400400      0.1279600      0.9802300       0.5400000
H2        0.2401100      0.8712900      0.9807300       0.5400000
H2        0.2016100      0.0000500      0.1959100       0.5400000
Pb        0.4122500      0.4996600      0.4998800       2.0300000
I         0.4084000      0.5000600     -0.0277100      -1.1300000
I         0.4158700      0.0011400      0.5171300      -1.1300000
I        -0.0414800      0.5012200      0.4540600      -1.1300000
observable
 energy eV
  0.165557861       100.000000    
 end
cell
  6.31000   6.31000   6.31000  90.00000  90.00000  90.00000
fractional
C1        0.9383400      0.9991400      1.0771199       0.7710000
N1        1.1411200      1.0007600      0.9591000      -1.1000000
H1        0.8064000      0.9987400      0.9632800       0.0230000
H1        0.9304400      1.1416600      1.1771400       0.0230000
H1        0.9321400      0.8558200      1.1761200       0.0230000
H2        1.1556799      1.1351399      0.8633200       0.5400000
H2        1.1572200      0.8672800      0.8623200       0.5400000
H2        1.2738600      1.0011400      1.0583000       0.5400000
Pb        0.4878800      0.4999200      1.4912601       2.0300000
I         0.4388000      0.4999400      0.9880600      -1.1300000
I         0.4471400      0.9998800      1.5264200      -1.1300000
I         0.9741400      0.4999000      1.4547000      -1.1300000
observable
 energy eV
  0.203006744       100.000000    
 end
cell
  6.70000   6.70000   6.70000  90.00000  90.00000  90.00000
fractional
C1        0.9587700     -0.0003700      0.0034900       0.7710000
N1        0.1775800     -0.0003300      0.0361300      -1.1000000
H1        0.9294400      0.9995600      0.8421400       0.0230000
H1        0.8953800      0.1342500      0.0728300       0.0230000
H1        0.8954300      0.8651100      0.0729400       0.0230000
H2        0.2446300      0.1257900      0.9736000       0.5400000
H2        0.2444400      0.8723900      0.9756300       0.5400000
H2        0.2145300      0.0012300      0.1886900       0.5400000
Pb        0.3876900      0.4822600      0.5026200       2.0300000
I         0.3921500      0.5007300     -0.0381300      -1.1300000
I         0.3955600      0.0171700      0.5167800      -1.1300000
I        -0.0523700      0.5015600      0.4504300      -1.1300000
observable
 energy eV
  0.239341736       100.000000    
 end
cell
  6.31000   6.31000   6.31000  90.00000  90.00000  90.00000
fractional
C1        1.1145600      0.9952000      0.9220600       0.7710000
N1        0.9724800      1.0045400      1.1085401      -1.1000000
H1        1.2798400      0.9885000      0.9769000       0.0230000
H1        1.0895400      1.1379000      0.8252000       0.0230000
H1        1.0765400      0.8523800      0.8296400       0.0230000
H2        1.0011801      1.1387800      1.2012800       0.5400000
H2        0.9890600      0.8712400      1.2054800       0.5400000
H2        0.8120600      1.0111600      1.0675600       0.5400000
Pb        0.4878800      0.4999200      1.4912601       2.0300000
I         0.4388000      0.4999400      0.9880600      -1.1300000
I         0.4471400      0.9998800      1.5264200      -1.1300000
I         0.9741400      0.4999000      1.4547000      -1.1300000
observable
 energy eV
  0.249008179       100.000000    
 end
cell
  6.31000   6.31000   6.31000  90.00000  90.00000  90.00000
fractional
C1        1.0726200      0.9945400      0.9015200       0.7710000
N1        1.0128000      1.0051600      1.1281400      -1.1000000
H1        1.2462200      0.9859000      0.8889800       0.0230000
H1        1.0140400      1.1376600      0.8212000       0.0230000
H1        1.0005800      0.8523200      0.8310600       0.0230000
H2        1.0762600      1.1389199      1.2024800       0.5400000
H2        1.0637400      0.8715200      1.2117200       0.5400000
H2        0.8489800      1.0136600      1.1516200       0.5400000
Pb        0.4878800      0.4999200      1.4912601       2.0300000
I         0.4388000      0.4999400      0.9880600      -1.1300000
I         0.4471400      0.9998800      1.5264200      -1.1300000
I         0.9741400      0.4999000      1.4547000      -1.1300000
observable
 energy eV
  0.265823364       100.000000    
 end
cell
  6.31000   6.31000   6.31000  90.00000  90.00000  90.00000
fractional
C1        1.0260201      0.9943800      0.8985600       0.7710000
N1        1.0575401      1.0053200      1.1308000      -1.1000000
H1        1.1815200      0.9838400      0.8206000       0.0230000
H1        0.9427200      1.1382999      0.8463800       0.0230000
H1        0.9309600      0.8531000      0.8614200       0.0230000
H2        1.1460800      1.1382400      1.1748400       0.5400000
H2        1.1351200      0.8709600      1.1889200       0.5400000
H2        0.9152800      1.0155801      1.2151400       0.5400000
Pb        0.4878800      0.4999200      1.4912601       2.0300000
I         0.4388000      0.4999400      0.9880600      -1.1300000
I         0.4471400      0.9998800      1.5264200      -1.1300000
I         0.9741400      0.4999000      1.4547000      -1.1300000
observable
 energy eV
  0.266654968       100.000000    
 end
cell
  6.31000   6.31000   6.31000  90.00000  90.00000  90.00000
fractional
C1        0.9692200      0.9987400      1.1121800       0.7710000
N1        1.1113800      1.0011400      0.9255600      -1.1000000
H1        0.8037400      0.9978600      1.0574800       0.0230000
H1        0.9996800      1.1411999      1.2078400       0.0230000
H1        1.0018600      0.8553800      1.2057800       0.0230000
H2        1.0877000      1.1356000      0.8317000       0.5400000
H2        1.0896800      0.8677600      0.8297400       0.5400000
H2        1.2719800      1.0020200      0.9664000       0.5400000
Pb        0.4878800      0.4999200      1.4912601       2.0300000
I         0.4388000      0.4999400      0.9880600      -1.1300000
I         0.4471400      0.9998800      1.5264200      -1.1300000
I         0.9741400      0.4999000      1.4547000      -1.1300000
observable
 energy eV
  0.275089264       100.000000    
 end
cell
  6.31000   6.31000   6.31000  90.00000  90.00000  90.00000
fractional
C1        1.0577600      0.9983000      1.1357200       0.7710000
N1        1.0263000      1.0015600      0.9032400      -1.1000000
H1        0.9020800      0.9961400      1.2140400       0.0230000
H1        1.1460800      1.1410800      1.1824600       0.0230000
H1        1.1478800      0.8552800      1.1781800       0.0230000
H2        0.9424000      1.1357400      0.8542200       0.5400000
H2        0.9440200      0.8679200      0.8502400       0.5400000
H2        1.1687400      1.0036800      0.8185800       0.5400000
Pb        0.4878800      0.4999200      1.4912601       2.0300000
I         0.4388000      0.4999400      0.9880600      -1.1300000
I         0.4471400      0.9998800      1.5264200      -1.1300000
I         0.9741400      0.4999000      1.4547000      -1.1300000
observable
 energy eV
  0.290927887       100.000000    
 end
cell
  6.31000   6.31000   6.31000  90.00000  90.00000  90.00000
fractional
C1        1.0111400      0.9984400      1.1327600       0.7710000
N1        1.0710599      1.0014200      0.9059400      -1.1000000
H1        0.8373400      0.9969400      1.1455400       0.0230000
H1        1.0754000      1.1410000      1.2097000       0.0230000
H1        1.0776000      0.8551800      1.2065001       0.0230000
H2        1.0128200      1.1358200      0.8285200       0.5400000
H2        1.0148000      0.8679800      0.8255000       0.5400000
H2        1.2350600      1.0029000      0.8822200       0.5400000
Pb        0.4878800      0.4999200      1.4912601       2.0300000
I         0.4388000      0.4999400      0.9880600      -1.1300000
I         0.4471400      0.9998800      1.5264200      -1.1300000
I         0.9741400      0.4999000      1.4547000      -1.1300000
observable
 energy eV
  0.292980194       100.000000    
 end
cell
  6.80000   6.80000   6.80000  90.00000  90.00000  90.00000
fractional
C1        0.9660800     -0.0001400      0.0062300       0.7710000
N1        0.1818600      0.0004200      0.0363900      -1.1000000
H1        0.9357900      0.0003500      0.8475500       0.0230000
H1        0.9040000      0.1321500      0.0754200       0.0230000
H1        0.9048000      0.8667300      0.0744300       0.0230000
H2        0.2457700      0.1274900      0.9780200       0.5400000
H2        0.2470700      0.8773300      0.9718300       0.5400000
H2        0.2191900      0.9964700      0.1865800       0.5400000
Pb        0.3771400      0.5249200      0.5028800       2.0300000
I         0.3742300      0.4993900     -0.0467100      -1.1300000
I         0.3804500     -0.0226900      0.5176500      -1.1300000
I        -0.0531300      0.4969200      0.4468500      -1.1300000
observable
 energy eV
  0.311374664       100.000000    
 end
cell
  6.00000   6.00000   6.00000  90.00000  90.00000  90.00000
fractional
C1        0.9154800     -0.0001200      0.9645900       0.7710000
N1        0.1395800     -0.0001900      0.0658100      -1.1000000
H1        0.9329100      0.9998000      0.7822100       0.0230000
H1        0.8254200      0.1502000      0.0185200       0.0230000
H1        0.8252700      0.8496800      0.0186400       0.0230000
H2        0.2316400      0.1403900      0.0188400       0.5400000
H2        0.2315400      0.8591800      0.0188900       0.5400000
H2        0.1363100     -0.0001400      0.2392700       0.5400000
Pb        0.5169200      0.5004400      0.4923700       2.0300000
I         0.4617400      0.5000000      0.9907600      -1.1300000
I         0.4602500      0.0003500      0.5471700      -1.1300000
I         0.0061700      0.4997400      0.4400700      -1.1300000
observable
 energy eV
  0.318752289       100.000000    
 end
cell
  6.31000   6.31000   6.31000  90.00000  90.00000  90.00000
fractional
C1        1.1019599      0.9983400      1.1206200       0.7710000
N1        0.9839200      1.0015200      0.9178800      -1.1000000
H1        0.9881000      0.9955600      1.2525400       0.0230000
H1        1.2009400      1.1414400      1.1302400       0.0230000
H1        1.2019399      0.8556600      1.1251400       0.0230000
H2        0.8871800      1.1354001      0.9049200       0.5400000
H2        0.8880800      0.8675800      0.9001800       0.5400000
H2        1.0831000      1.0042000      0.7851600       0.5400000
Pb        0.4878800      0.4999200      1.4912601       2.0300000
I         0.4388000      0.4999400      0.9880600      -1.1300000
I         0.4471400      0.9998800      1.5264200      -1.1300000
I         0.9741400      0.4999000      1.4547000      -1.1300000
observable
 energy eV
  0.324470520       100.000000    
 end
cell
  6.31000   6.31000   6.31000  90.00000  90.00000  90.00000
fractional
C1        1.1454200      0.9962600      0.9570800       0.7710000
N1        0.9427200      1.0035200      1.0750200      -1.1000000
H1        1.2772200      0.9912200      1.0710000       0.0230000
H1        1.1577801      1.1389400      0.8578000       0.0230000
H1        1.1472600      0.8533000      0.8573800       0.0230000
H2        0.9322600      1.1378200      1.1714799       0.5400000
H2        0.9224600      0.8701400      1.1711400       0.5400000
H2        0.8101200      1.0085000      0.9757800       0.5400000
Pb        0.4878800      0.4999200      1.4912601       2.0300000
I         0.4388000      0.4999400      0.9880600      -1.1300000
I         0.4471400      0.9998800      1.5264200      -1.1300000
I         0.9741400      0.4999000      1.4547000      -1.1300000
observable
 energy eV
  0.357551575       100.000000    
 end
cell
  6.31000   6.31000   6.31000  90.00000  90.00000  90.00000
fractional
C1        1.1370000      0.9985400      1.0897599       0.7710000
N1        0.9503800      1.0013200      0.9476200      -1.1000000
H1        1.0823200      0.9953200      1.2552000       0.0230000
H1        1.2316600      1.1420200      1.0610000       0.0230000
H1        1.2316200      0.8562400      1.0554200       0.0230000
H2        0.8555800      1.1348200      0.9728800       0.5400000
H2        0.8555000      0.8670200      0.9677200       0.5400000
H2        0.9912000      1.0044000      0.7870600       0.5400000
Pb        0.4878800      0.4999200      1.4912601       2.0300000
I         0.4388000      0.4999400      0.9880600      -1.1300000
I         0.4471400      0.9998800      1.5264200      -1.1300000
I         0.9741400      0.4999000      1.4547000      -1.1300000
observable
 energy eV
  0.428508759       100.000000    
 end
cell
  6.31000   6.31000   6.31000  90.00000  90.00000  90.00000
fractional
C1        1.1605400      0.9975600      1.0012600       0.7710000
N1        0.9280800      1.0022800      1.0326800      -1.1000000
H1        1.2387800      0.9936400      1.1569200       0.0230000
H1        1.2083400      1.1406400      0.9140000       0.0230000
H1        1.2019600      0.8549000      0.9100800       0.0230000
H2        0.8800200      1.1361800      1.1175600       0.5400000
H2        0.8740600      0.8684200      1.1139400       0.5400000
H2        0.8434600      1.0060800      0.8902400       0.5400000
Pb        0.4878800      0.4999200      1.4912601       2.0300000
I         0.4388000      0.4999400      0.9880600      -1.1300000
I         0.4471400      0.9998800      1.5264200      -1.1300000
I         0.9741400      0.4999000      1.4547000      -1.1300000
observable
 energy eV
  0.474075317       100.000000    
 end
cell
  6.31000   6.31000   6.31000  90.00000  90.00000  90.00000
fractional
C1        1.1575800      0.9989000      1.0478400       0.7710000
N1        0.9307600      1.0010000      0.9879400      -1.1000000
H1        1.1703800      0.9954200      1.2216001       0.0230000
H1        1.2335200      1.1427400      0.9852800       0.0230000
H1        1.2323400      0.8569600      0.9796800       0.0230000
H2        0.8523800      1.1341200      1.0477800       0.5400000
H2        0.8512600      0.8663200      1.0426000       0.5400000
H2        0.9070200      1.0042599      0.8239800       0.5400000
Pb        0.4878800      0.4999200      1.4912601       2.0300000
I         0.4388000      0.4999400      0.9880600      -1.1300000
I         0.4471400      0.9998800      1.5264200      -1.1300000
I         0.9741400      0.4999000      1.4547000      -1.1300000
observable
 energy eV
  0.519287109       100.000000    
 end
cell
  5.90000   5.90000   5.90000  90.00000  90.00000  90.00000
fractional
C1        0.9174200     -0.0002100      0.9501200       0.7710000
N1        0.1334600     -0.0000500      0.0755900      -1.1000000
H1        0.9545800      0.9996800      0.7676700       0.0230000
H1        0.8205500      0.1527100     -0.0051600       0.0230000
H1        0.8207300      0.8467700     -0.0049600       0.0230000
H2        0.2311500      0.1430400      0.0366700       0.5400000
H2        0.2311200      0.8567100      0.0369900       0.5400000
H2        0.1124400      0.0001400      0.2503000       0.5400000
Pb        0.5258300      0.5002000      0.4967500       2.0300000
I         0.4599700      0.5000200      0.9951400      -1.1300000
I         0.4617600      0.0002500      0.5569600      -1.1300000
I         0.0142300      0.5000800      0.4410700      -1.1300000
observable
 energy eV
  0.600040436       100.000000    
 end
cell
  5.80000   5.80000   5.80000  90.00000  90.00000  90.00000
fractional
C1        0.9167700      0.0001900      0.9431800       0.7710000
N1        0.1248800      0.0000000      0.0880200      -1.1000000
H1        0.9701400      0.0003400      0.7613800       0.0230000
H1        0.8151400      0.1560200     -0.0196600       0.0230000
H1        0.8147300      0.8445900     -0.0197600       0.0230000
H2        0.2272000      0.1454700      0.0561000       0.5400000
H2        0.2269300      0.8542700      0.0563700       0.5400000
H2        0.0891000      0.0005000      0.2630100       0.5400000
Pb        0.5423800      0.5010800      0.4773300       2.0300000
I         0.4502000      0.5002500      0.9797400      -1.1300000
I         0.4751600      0.0006600      0.5518100      -1.1300000
I         0.0306000      0.4959500      0.4596200      -1.1300000
observable
 energy eV
   1.00538254       100.000000    
 end
species 7
C1 core  0.7710
N1 core -1.1000
H1 core  0.0230
H2 core  0.5400
Pb core  2.0300
I  core -1.1300
Br core -1.1300
lennard 12 6 epsilon x13 kcal
C1  C1 0.1094  3.39970  0   12                              0 0