single conv
cell
  6.31000   6.31000   6.31000  90.00000  90.00000  90.00000
fractional
C1        0.9262200      0.0000300      0.9863200       0.7710000
N1        0.1530700      0.9998900      0.0462400      -1.1000000
H1        0.9134200      0.9999300      0.8125300       0.0230000
H1        0.8509900      0.1430500      0.0516100       0.0230000
H1        0.8507800      0.8572000      0.0517800       0.0230000
H2        0.2320800      0.1337500      0.9889300       0.5400000
H2        0.2319100      0.8658900      0.9890500       0.5400000
H2        0.1768100      0.9999500      0.2102500       0.5400000
Pb        0.4878900      0.4999200      0.4912700       2.0300000
I         0.4388000      0.4999400      0.9880600      -1.1300000
I         0.4471400      0.9998800      0.5264100      -1.1300000
I         0.9741300      0.4999100      0.4546900      -1.1300000
supercell 2 1 1
library peros
