single conv molecule
cell
  6.20000   6.20000   6.20000  90.00000  90.00000  90.00000
frac
C1        0.9194500      0.0000100      0.9807300       0.7710000
N1        0.1479900     -0.0000800      0.0491600      -1.1000000
H1        0.9122600      0.9998900      0.8036200       0.0230000
H1        0.8406800      0.1456700      0.0443800       0.0230000
H1        0.8404800      0.8545700      0.0446100       0.0230000
H2        0.2302800      0.1361700      0.9933400       0.5400000
H2        0.2301700      0.8635600      0.9934300       0.5400000
H2        0.1666400     -0.0000300      0.2165300       0.5400000
Pb        0.5000600      0.4998100      0.4949200       2.0300000
I         0.4506500      0.4998800      0.9920800      -1.1300000
I         0.4555900      0.9997200      0.5308300      -1.1300000
I         0.9889800      0.5001700      0.4535200      -1.1300000
supercell 2 2 2
library peros
output cif  test
