single conv molecule
cell
  6.00000   6.00000   6.00000  90.00000  90.00000  90.00000
fractional
C1        0.9154800     -0.0001200      0.9645900       0.7710000
N1        0.1395800     -0.0001900      0.0658100      -1.1000000
H1        0.9329100      0.9998000      0.7822100       0.0230000
H1        0.8254200      0.1502000      0.0185200       0.0230000
H1        0.8252700      0.8496800      0.0186400       0.0230000
H2        0.2316400      0.1403900      0.0188400       0.5400000
H2        0.2315400      0.8591800      0.0188900       0.5400000
H2        0.1363100     -0.0001400      0.2392700       0.5400000
Pb        0.5169200      0.5004400      0.4923700       2.0300000
I         0.4617400      0.5000000      0.9907600      -1.1300000
I         0.4602500      0.0003500      0.5471700      -1.1300000
I         0.0061700      0.4997400      0.4400700      -1.1300000
supercell 2 1 1
library peros
