single conv molecule
cell
  5.80000   5.80000   5.80000  90.00000  90.00000  90.00000
fractional
C1        0.9167700      0.0001900      0.9431800       0.7710000
N1        0.1248800      0.0000000      0.0880200      -1.1000000
H1        0.9701400      0.0003400      0.7613800       0.0230000
H1        0.8151400      0.1560200     -0.0196600       0.0230000
H1        0.8147300      0.8445900     -0.0197600       0.0230000
H2        0.2272000      0.1454700      0.0561000       0.5400000
H2        0.2269300      0.8542700      0.0563700       0.5400000
H2        0.0891000      0.0005000      0.2630100       0.5400000
Pb        0.5423800      0.5010800      0.4773300       2.0300000
I         0.4502000      0.5002500      0.9797400      -1.1300000
I         0.4751600      0.0006600      0.5518100      -1.1300000
I         0.0306000      0.4959500      0.4596200      -1.1300000
supercell 2 1 1
library peros
