single conv molecule
cell
  6.40000   6.40000   6.40000  90.00000  90.00000  90.00000
frac
C1        0.9574100      0.0004600      0.0003800       0.7710000
N1        0.1854900      0.0023000      0.0390100      -1.1000000
H1        0.9298900      0.0009800      0.8309700       0.0230000
H1        0.8883500      0.1404000      0.0720600       0.0230000
H1        0.8907000      0.8587600      0.0707100       0.0230000
H2        0.2538600      0.1380800      0.9796800       0.5400000
H2        0.2569400      0.8722300      0.9713500       0.5400000
H2        0.2213100     -0.0031300      0.1994100       0.5400000
Pb        0.3853100      0.5215100      0.5064300       2.0300000
Br        0.3717200      0.5027900     -0.0458400      -1.1300000
Br        0.3810000     -0.0289100      0.5196100      -1.1300000
Br       -0.0387500      0.4938900      0.4533600      -1.1300000
supercell 2 2 2
species     6
C1  
N1  
H1  
H2  
Pb  
Br  
library peros
output cif  test
