single conv molecule
cell
  6.31000   6.31000   6.31000  90.00000  90.00000  90.00000
frac
C1        1.1575800      0.9989000      1.0478400       0.7710000
N1        0.9307600      1.0010000      0.9879400      -1.1000000
H1        1.1703800      0.9954200      1.2216001       0.0230000
H1        1.2335200      1.1427400      0.9852800       0.0230000
H1        1.2323400      0.8569600      0.9796800       0.0230000
H2        0.8523800      1.1341200      1.0477800       0.5400000
H2        0.8512600      0.8663200      1.0426000       0.5400000
H2        0.9070200      1.0042599      0.8239800       0.5400000
Pb        0.4878800      0.4999200      1.4912601       2.0300000
I         0.4388000      0.4999400      0.9880600      -1.1300000
I         0.4471400      0.9998800      1.5264200      -1.1300000
I         0.9741400      0.4999000      1.4547000      -1.1300000
supercell 2 2 2
library peros
output cif  test
