single conv
cell
  5.90000   5.90000   5.90000  90.00000  90.00000  90.00000
frac
C1        0.9174200     -0.0002100      0.9501200       0.7710000
N1        0.1334600     -0.0000500      0.0755900      -1.1000000
H1        0.9545800      0.9996800      0.7676700       0.0230000
H1        0.8205500      0.1527100     -0.0051600       0.0230000
H1        0.8207300      0.8467700     -0.0049600       0.0230000
H2        0.2311500      0.1430400      0.0366700       0.5400000
H2        0.2311200      0.8567100      0.0369900       0.5400000
H2        0.1124400      0.0001400      0.2503000       0.5400000
Pb        0.5258300      0.5002000      0.4967500       2.0300000
I         0.4599700      0.5000200      0.9951400      -1.1300000
I         0.4617600      0.0002500      0.5569600      -1.1300000
I         0.0142300      0.5000800      0.4410700      -1.1300000
supercell 2 2 2
library peros
output cif  test
