single conv molecule
cell
  6.50000   6.50000   6.50000  90.00000  90.00000  90.00000
fractional
C1        0.9379900     -0.0000100      0.9904800       0.7710000
N1        0.1601400     -0.0001100      0.0421500      -1.1000000
H1        0.9212800      0.9998500      0.8220500       0.0230000
H1        0.8669200      0.1388400      0.0561700       0.0230000
H1        0.8667700      0.8613800      0.0563900       0.0230000
H2        0.2350900      0.1298100      0.9845700       0.5400000
H2        0.2349300      0.8698300      0.9847200       0.5400000
H2        0.1878500     -0.0000200      0.2008800       0.5400000
Pb        0.4766400      0.5000300      0.4950100       2.0300000
I         0.4247000      0.4998000     -0.0138200      -1.1300000
I         0.4266700     -0.0000800      0.5181000      -1.1300000
I        -0.0557700      0.5000300      0.4604300      -1.1300000
supercell 2 1 1
library peros
