single conv
cell
  6.05000   6.05000   6.05000  90.00000  90.00000  90.00000
fractional
C1        0.9256400      0.0000700      0.9828400       0.0000000
N1        0.1616600     -0.0000100      0.0473600       0.0000000
H1        0.9134700      0.9999700      0.8016000       0.0000000
H1        0.8467000      0.1491900      0.0502700       0.0000000
H1        0.8464300      0.8512200      0.0505500       0.0000000
H2        0.2439500      0.1400700      0.9887100       0.0000000
H2        0.2438600      0.8598800      0.9886700       0.0000000
H2        0.1849600     -0.0000100      0.2186700       0.0000000
Pb        0.4830000      0.4998400      0.4965100       0.0000000
Br        0.4333100      0.4996400      0.9889300       0.0000000
Br        0.4398800     -0.0003600      0.5224000       0.0000000
Br        0.9603700      0.4998500      0.4606300       0.0000000
supercell 2 1 1
library peros
