single conv
cell
  5.50000   5.50000   5.50000  90.00000  90.00000  90.00000
fractional
C1        0.9051200      0.0004400      0.9490000       0.0000000
N1        0.1378300      0.9995100      0.0790900       0.0000000
H1        0.9421300     -0.0001100      0.7529000       0.0000000
H1        0.8026700      0.1648000     -0.0017000       0.0000000
H1        0.8013000      0.8370200     -0.0014200       0.0000000
H2        0.2413400      0.1532400      0.0361100       0.0000000
H2        0.2409900      0.8458600      0.0346800       0.0000000
H2        0.1195500      0.9982700      0.2667800       0.0000000
Pb        0.5490300      0.4983400      0.4966300       0.0000000
Br        0.4539900      0.4999700      0.9922600       0.0000000
Br        0.4512000     -0.0007900      0.5618000       0.0000000
Br        0.0380800      0.5027900      0.4310100       0.0000000
supercell 2 1 1
library peros
