single conv
cell
  5.60000   5.60000   5.60000  90.00000  90.00000  90.00000
fractional
C1        0.9078700     -0.0000500      0.9537400       0.0000000
N1        0.1414800     -0.0001500      0.0739300       0.0000000
H1        0.9371600      0.9997900      0.7598700       0.0000000
H1        0.8086600      0.1611200      0.0060200       0.0000000
H1        0.8085200      0.8388400      0.0061200       0.0000000
H2        0.2416400      0.1506100      0.0278800       0.0000000
H2        0.2415400      0.8490000      0.0280000       0.0000000
H2        0.1295800     -0.0001000      0.2589400       0.0000000
Pb        0.5345900      0.5001400      0.4968600       0.0000000
Br        0.4553400      0.5000600      0.9932600       0.0000000
Br        0.4520200      0.0001400      0.5583400       0.0000000
Br        0.0248100      0.4999600      0.4341700       0.0000000
supercell 2 1 1
library peros
