fit conv molecule simul opti
cell
  5.93000   5.93000   5.93000  90.00000  90.00000  90.00000
fractional
C1        0.9153200      0.9999100      0.9801500       0.0000000
N1        0.1551600      0.9997500      0.0485900       0.0000000
H1        0.9050300      0.9997200      0.7951400       0.0000000
H1        0.8338200      0.1521200      0.0477600       0.0000000
H1        0.8335300      0.8480400      0.0481100       0.0000000
H2        0.2400600      0.1421900      0.9892700       0.0000000
H2        0.2398600      0.8571700      0.9893300       0.0000000
H2        0.1773800      0.9997700      0.2232800       0.0000000
Pb        0.4975800      0.5000700      0.4981800       0.0000000
Br        0.4467700      0.4996400      0.9922300       0.0000000
Br        0.4520600      0.0003400      0.5260400       0.0000000
Br        0.9866600      0.5006300      0.4590600       0.0000000
supercell 2 1 1
observable
 energy eV
   0.00000000       100.000000    
 end
cell
  5.92000   5.92000   5.92000  90.00000  90.00000  90.00000
fractional
C1        0.9149300      0.9999300      0.9800800       0.0000000
N1        0.1553900      0.9997600      0.0484200       0.0000000
H1        0.9044600      0.9997200      0.7946900       0.0000000
H1        0.8331800      0.1523600      0.0477500       0.0000000
H1        0.8328900      0.8477700      0.0481100       0.0000000
H2        0.2405900      0.1424500      0.9890200       0.0000000
H2        0.2403600      0.8569100      0.9890800       0.0000000
H2        0.1778500      0.9997600      0.2235100       0.0000000
Pb        0.4979000      0.5000600      0.4983900       0.0000000
Br        0.4467700      0.4996300      0.9924600       0.0000000
Br        0.4521800      0.0001300      0.5262400       0.0000000
Br        0.9867400      0.5008600      0.4593800       0.0000000
supercell 2 1 1
observable
 energy eV
   2.97546387E-04   100.000000    
 end
cell
  5.95000   5.95000   5.95000  90.00000  90.00000  90.00000
fractional
C1        0.9179800      0.9999300      0.9810900       0.0000000
N1        0.1572100      0.9995600      0.0487800       0.0000000
H1        0.9076200      0.9998100      0.7967300       0.0000000
H1        0.8371500      0.1517400      0.0486200       0.0000000
H1        0.8365600      0.8486500      0.0489700       0.0000000
H2        0.2418500      0.1415100      0.9895600       0.0000000
H2        0.2413800      0.8573900      0.9895300       0.0000000
H2        0.1797500      0.9995700      0.2228700       0.0000000
Pb        0.4918800      0.5006700      0.4954500       0.0000000
Br        0.4417400      0.4982300      0.9915700       0.0000000
Br        0.4494600      0.0007100      0.5270500       0.0000000
Br        0.9806500      0.5015800      0.4569400       0.0000000
supercell 2 1 1
observable
 energy eV
   8.58306885E-04   100.000000    
 end
cell
  5.90000   5.90000   5.90000  90.00000  90.00000  90.00000
fractional
C1        0.9142700     -0.0001300      0.9796800       0.0000000
N1        0.1555500     -0.0003000      0.0475300       0.0000000
H1        0.9036000      0.9996500      0.7937300       0.0000000
H1        0.8325400      0.1529000      0.0478400       0.0000000
H1        0.8322600      0.8471100      0.0481600       0.0000000
H2        0.2409300      0.1428100      0.9877800       0.0000000
H2        0.2407100      0.8564200      0.9878900       0.0000000
H2        0.1785800      0.9997000      0.2231000       0.0000000
Pb        0.4977400      0.5000400      0.4986400       0.0000000
Br        0.4479100      0.4999800     -0.0065800       0.0000000
Br        0.4516400      0.0000900      0.5257400       0.0000000
Br       -0.0125100      0.5010700      0.4636200       0.0000000
supercell 2 1 1
observable
 energy eV
   4.01687622E-03   100.000000    
 end
cell
  5.88000   5.88000   5.88000  90.00000  90.00000  90.00000
fractional
C1        0.9138800      0.0000000      0.9797800       0.0000000
N1        0.1556800      0.9997400      0.0488200       0.0000000
H1        0.9032800      0.9998100      0.7931300       0.0000000
H1        0.8315200      0.1535800      0.0478300       0.0000000
H1        0.8311800      0.8467700      0.0481400       0.0000000
H2        0.2417100      0.1432700      0.9891600       0.0000000
H2        0.2412400      0.8558400      0.9892200       0.0000000
H2        0.1782000      0.9996900      0.2250500       0.0000000
Pb        0.4965100      0.5000700      0.4966700       0.0000000
Br        0.4484200      0.5000400      0.9926000       0.0000000
Br        0.4532800      0.0004100      0.5275500       0.0000000
Br        0.9883200      0.5001200      0.4591900       0.0000000
supercell 2 1 1
observable
 energy eV
   9.30404663E-03   100.000000    
 end
cell
  6.00000   6.00000   6.00000  90.00000  90.00000  90.00000
fractional
C1        0.9212100     -0.0003600      0.9830800       0.0000000
N1        0.1597500      0.9996400      0.0461200       0.0000000
H1        0.9077900      0.9994300      0.8003900       0.0000000
H1        0.8421700      0.1501400      0.0515300       0.0000000
H1        0.8420700      0.8493600      0.0518900       0.0000000
H2        0.2423400      0.1405800      0.9859900       0.0000000
H2        0.2422700      0.8585300      0.9862000       0.0000000
H2        0.1850500      0.9997500      0.2185900       0.0000000
Pb        0.4855500      0.5002200      0.4965800       0.0000000
Br        0.4384400      0.5000700     -0.0078800       0.0000000
Br        0.4446400      0.0011800      0.5226900       0.0000000
Br       -0.0280600      0.5007800      0.4619600       0.0000000
supercell 2 1 1
observable
 energy eV
   1.38511658E-02   100.000000    
 end
cell
  5.85000   5.85000   5.85000  90.00000  90.00000  90.00000
fractional
C1        0.9124900     -0.0000900      0.9787000       0.0000000
N1        0.1545500      0.9997200      0.0507800       0.0000000
H1        0.9044700      0.9996800      0.7910400       0.0000000
H1        0.8292700      0.1543500      0.0461500       0.0000000
H1        0.8289900      0.8457800      0.0464800       0.0000000
H2        0.2414500      0.1439800      0.9915100       0.0000000
H2        0.2412300      0.8553500      0.9915500       0.0000000
H2        0.1749800      0.9997000      0.2280500       0.0000000
Pb        0.4999000      0.4999300      0.4961000       0.0000000
Br        0.4510700      0.4995900      0.9927700       0.0000000
Br        0.4520000     -0.0000700      0.5331500       0.0000000
Br        0.9928100      0.5014200      0.4508700       0.0000000
supercell 2 1 1
observable
 energy eV
   2.25791931E-02   100.000000    
 end
cell
  6.05000   6.05000   6.05000  90.00000  90.00000  90.00000
fractional
C1        0.9256400      0.0000700      0.9828400       0.0000000
N1        0.1616600     -0.0000100      0.0473600       0.0000000
H1        0.9134700      0.9999700      0.8016000       0.0000000
H1        0.8467000      0.1491900      0.0502700       0.0000000
H1        0.8464300      0.8512200      0.0505500       0.0000000
H2        0.2439500      0.1400700      0.9887100       0.0000000
H2        0.2438600      0.8598800      0.9886700       0.0000000
H2        0.1849600     -0.0000100      0.2186700       0.0000000
Pb        0.4830000      0.4998400      0.4965100       0.0000000
Br        0.4333100      0.4996400      0.9889300       0.0000000
Br        0.4398800     -0.0003600      0.5224000       0.0000000
Br        0.9603700      0.4998500      0.4606300       0.0000000
supercell 2 1 1
observable
 energy eV
   3.92951965E-02   100.000000    
 end
cell
  5.80000   5.80000   5.80000  90.00000  90.00000  90.00000
fractional
C1        0.9105300      0.0015200      0.9771000       0.0000000
N1        0.1524100      0.0006300      0.0558300       0.0000000
H1        0.9073500      0.0015000      0.7877200       0.0000000
H1        0.8251500      0.1573900      0.0429400       0.0000000
H1        0.8240100      0.8463000      0.0428500       0.0000000
H2        0.2416000      0.1462300      0.9982100       0.0000000
H2        0.2409500      0.8549300      0.9976500       0.0000000
H2        0.1686900      0.0002300      0.2348900       0.0000000
Pb        0.5077500      0.4962300      0.4919400       0.0000000
Br        0.4511600      0.5000700     -0.0116100       0.0000000
Br        0.4541200     -0.0042400      0.5386500       0.0000000
Br       -0.0005200      0.4985600      0.4409600       0.0000000
supercell 2 1 1
observable
 energy eV
   6.23321533E-02   100.000000    
 end
cell
  6.10000   6.10000   6.10000  90.00000  90.00000  90.00000
fractional
C1        0.9295300     -0.0000400      0.9865300       0.0000000
N1        0.1654100      0.9998500      0.0441500       0.0000000
H1        0.9128900      0.9998000      0.8070700       0.0000000
H1        0.8530300      0.1478400      0.0554200       0.0000000
H1        0.8528600      0.8522900      0.0556900       0.0000000
H2        0.2451300      0.1386700      0.9834600       0.0000000
H2        0.2449900      0.8608800      0.9836300       0.0000000
H2        0.1936900      0.9999400      0.2135700       0.0000000
Pb        0.4791900      0.5000300      0.4964400       0.0000000
Br        0.4240000      0.4998200     -0.0127700       0.0000000
Br        0.4375000     -0.0000300      0.5187900       0.0000000
Br       -0.0550100      0.5002900      0.4651500       0.0000000
supercell 2 1 1
observable
 energy eV
   7.28378296E-02   100.000000    
 end
cell
  6.20000   6.20000   6.20000  90.00000  90.00000  90.00000
fractional
C1        0.9367400     -0.0000900      0.9910900       0.0000000
N1        0.1702000      0.9999500      0.0421900       0.0000000
H1        0.9167900      0.9997600      0.8149700       0.0000000
H1        0.8633300      0.1455300      0.0606100       0.0000000
H1        0.8632600      0.8544200      0.0609100       0.0000000
H2        0.2469200      0.1364800      0.9801900       0.0000000
H2        0.2469700      0.8633600      0.9803600       0.0000000
H2        0.2014600      0.0000400      0.2086700       0.0000000
Pb        0.4276500      0.5002400      0.5034600       0.0000000
Br        0.4158000      0.5002400     -0.0269400       0.0000000
Br        0.4164300     -0.0006200      0.5199700       0.0000000
Br       -0.0223300      0.5000400      0.4616600       0.0000000
supercell 2 1 1
observable
 energy eV
  0.151012421       100.000000    
 end
cell
  5.70000   5.70000   5.70000  90.00000  90.00000  90.00000
fractional
C1        0.9032000      0.0000500      0.9763000       0.0000000
N1        0.1488000      0.9997200      0.0566000       0.0000000
H1        0.9000200      0.9999800      0.7835700       0.0000000
H1        0.8155800      0.1585300      0.0426600       0.0000000
H1        0.8151200      0.8418800      0.0428000       0.0000000
H2        0.2396200      0.1475700      0.9973300       0.0000000
H2        0.2392100      0.8515400      0.9975200       0.0000000
H2        0.1655000      0.9998300      0.2388600       0.0000000
Pb        0.5269100      0.5002100      0.4917100       0.0000000
Br        0.4567100      0.4999400      0.9882500       0.0000000
Br        0.4536600      0.0001900      0.5428700       0.0000000
Br        0.0188800      0.4999000      0.4386500       0.0000000
supercell 2 1 1
observable
 energy eV
  0.208896637       100.000000    
 end
cell
  6.30000   6.30000   6.30000  90.00000  90.00000  90.00000
fractional
C1        0.9486000     -0.0002400      0.9963400       0.0000000
N1        0.1794600      0.0000500      0.0402700       0.0000000
H1        0.9235600      0.9995700      0.8236800       0.0000000
H1        0.8782700      0.1427700      0.0673800       0.0000000
H1        0.8786300      0.8566600      0.0676000       0.0000000
H2        0.2520800      0.1356700      0.9786200       0.0000000
H2        0.2527000      0.8660700      0.9757700       0.0000000
H2        0.2133900      0.9979200      0.2036500       0.0000000
Pb        0.4027700      0.5194400      0.5057900       0.0000000
Br        0.3908500      0.5005200     -0.0346500       0.0000000
Br        0.3942200     -0.0188700      0.5224000       0.0000000
Br       -0.0312900      0.4997700      0.4502800       0.0000000
supercell 2 1 1
observable
 energy eV
  0.228042603       100.000000    
 end
cell
  6.40000   6.40000   6.40000  90.00000  90.00000  90.00000
fractional
C1        0.9574100      0.0004600      0.0003800       0.0000000
N1        0.1854900      0.0023000      0.0390100       0.0000000
H1        0.9298900      0.0009800      0.8309700       0.0000000
H1        0.8883500      0.1404000      0.0720600       0.0000000
H1        0.8907000      0.8587600      0.0707100       0.0000000
H2        0.2538600      0.1380800      0.9796800       0.0000000
H2        0.2569400      0.8722300      0.9713500       0.0000000
H2        0.2213100     -0.0031300      0.1994100       0.0000000
Pb        0.3853100      0.5215100      0.5064300       0.0000000
Br        0.3717200      0.5027900     -0.0458400       0.0000000
Br        0.3810000     -0.0289100      0.5196100       0.0000000
Br       -0.0387500      0.4938900      0.4533600       0.0000000
supercell 2 1 1
observable
 energy eV
  0.298572540       100.000000    
 end
cell
  6.50000   6.50000   6.50000  90.00000  90.00000  90.00000
fractional
C1        0.9662700     -0.0013000      0.0109100       0.0000000
N1        0.1925600      0.0010500      0.0380700       0.0000000
H1        0.9312700      0.9987100      0.8455500       0.0000000
H1        0.9017800      0.1364600      0.0847900       0.0000000
H1        0.9051100      0.8588800      0.0839400       0.0000000
H2        0.2564700      0.1352600      0.9770700       0.0000000
H2        0.2594300      0.8732100      0.9674900       0.0000000
H2        0.2337600      0.9945800      0.1948900       0.0000000
Pb        0.3658100      0.5266100      0.5030500       0.0000000
Br        0.3488800      0.5028000     -0.0606200       0.0000000
Br        0.3692900     -0.0342200      0.5164900       0.0000000
Br       -0.0474100      0.5072900      0.4355000       0.0000000
supercell 2 1 1
observable
 energy eV
  0.366512299       100.000000    
 end
cell
  5.60000   5.60000   5.60000  90.00000  90.00000  90.00000
fractional
C1        0.9078700     -0.0000500      0.9537400       0.0000000
N1        0.1414800     -0.0001500      0.0739300       0.0000000
H1        0.9371600      0.9997900      0.7598700       0.0000000
H1        0.8086600      0.1611200      0.0060200       0.0000000
H1        0.8085200      0.8388400      0.0061200       0.0000000
H2        0.2416400      0.1506100      0.0278800       0.0000000
H2        0.2415400      0.8490000      0.0280000       0.0000000
H2        0.1295800     -0.0001000      0.2589400       0.0000000
Pb        0.5345900      0.5001400      0.4968600       0.0000000
Br        0.4553400      0.5000600      0.9932600       0.0000000
Br        0.4520200      0.0001400      0.5583400       0.0000000
Br        0.0248100      0.4999600      0.4341700       0.0000000
supercell 2 1 1
observable
 energy eV
  0.441032410       100.000000    
 end
cell
  5.50000   5.50000   5.50000  90.00000  90.00000  90.00000
fractional
C1        0.9051200      0.0004400      0.9490000       0.0000000
N1        0.1378300      0.9995100      0.0790900       0.0000000
H1        0.9421300     -0.0001100      0.7529000       0.0000000
H1        0.8026700      0.1648000     -0.0017000       0.0000000
H1        0.8013000      0.8370200     -0.0014200       0.0000000
H2        0.2413400      0.1532400      0.0361100       0.0000000
H2        0.2409900      0.8458600      0.0346800       0.0000000
H2        0.1195500      0.9982700      0.2667800       0.0000000
Pb        0.5490300      0.4983400      0.4966300       0.0000000
Br        0.4539900      0.4999700      0.9922600       0.0000000
Br        0.4512000     -0.0007900      0.5618000       0.0000000
Br        0.0380800      0.5027900      0.4310100       0.0000000
supercell 2 1 1
observable
 energy eV
  0.808002472       100.000000    
 end
vary
 shift
end
library peros
species 7
C1 core  0.7710
N1 core -1.1000
H1 core  0.0230
H2 core  0.5400
Pb core  2.0300
I  core -1.1300
Br core -1.1300
lennard 12 6 epsilon x13 kcal
C1  C1 0.1094  3.39970  0   12                              0 0
C1  N1 0.1364  3.32480  0   12                              0 0
C1  H1 0.0414  2.67980  0   12                              0 0
C1  H2 0.0414  2.23440  0   12                              0 0
N1  N1 0.1700  3.25000  0   12                              0 0
N1  H1 0.0517  2.60500  0   12                              0 0
N1  H2 0.0517  2.15950  0   12                              0 0
H1  H1 0.0157  1.96000  0   12                              0 0
H1  H2 0.0157  1.51450  0   12                              0 0
H1  Pb 0.0140  2.26454  0   12                              0 0
H1  I  0.0574  3.10000  0   12                              0 0
H2  Br 0.05125 2.45535714285714 0 12                        0 0
H1  Br 0.05125 2.76785714285714 0 12                        0 0
H2  H2 0.0157  1.06910  0   12                              0 0
H2  Pb 0.0140  2.70999  0   12                              0 0
H2  I  0.0574  2.75000  0   12                              0 0
buck inter kcal
Pb  Pb 70359906.629702  0.131258    0.0 0 12                0 0 0
Pb  Br   110223.38165565 0.302100469483568 0.000000   0 12  0 1 0
Br Br     24274.90558983 0.45286103286385 654.4127155 0 12  0 0 0
Pb  I    103496.133010  0.321737    0.0 0 12                0 0 0
I   I     22793.338582     0.482217  696.949542 0 12        0 0 0
C1  Pb 32690390.937995  0.150947    0.0 0 12                0 0 0
C1  I    112936.714213   0.342426    0.0 0 12               0 0 0
N1  Pb 32690390.937995   0.150947    0.0 0 12               0 0 0
N1  I    112936.714213   0.342426    0.0 0 12               0 0 0
N1  Br   94836.351975893 0.3352375  0.0 0 12                0 0 0
C1  Br   94836.351975893 0.3352375  0.0 0 12                0 0 0
harmonic intra bond kcal 
C1  N1   587.200012     1.49899995 0                        0 0
C1  H1   677.400024     1.09099996 0                        0 0
H2  N1   738.000000     1.03299999 0                        0 0
three intra bond kcal                                       
C1  H1 N1   98.0        107.910004                          0 0
C1  H1 H1   78.0        110.739998                          0 0
N1  H2 C1   92.4        110.110001                          0 0
N1  H2 H2   81.0        108.110001                          0 0
torsion intra bond kcal                                     
H1  C1  N1  H2 7.77999982E-02   3  0.0                      0 
nobond H1  core H2  core
nobond H1  core H1  core
nobond H2  core H2  core
nobond H1  core N1  core
nobond H2  core C1  core
nobond Pb  core Pb  core
nobond I   core  I  core
nobond Br  core Br  core
nobond I   core Pb  core
nobond Br  core Pb  core
nobond Pb  core C1  core
nobond Pb  core N1  core
nobond Pb  core H1  core
nobond Pb  core H2  core
nobond I  core C1   core
nobond Br core C1   core
nobond I  core N1   core
nobond Br core N1   core
nobond I  core H1   core
nobond Br core H1   core
nobond I  core H2   core
nobond Br core H2   core
dump every 1 out.res
